(set-logic QF_S)
(declare-fun x () String)
(declare-fun y () String)
(declare-fun z () Int)
(assert (not (= (str.replace "A" (str.replace "A" x "B") "") (str.at "A" (str.indexof "A" x 0)))))
(check-sat)
